1617534
61 36 30445
36 52 6554
52 43 84806
43 13 62419
13 9 62052
9 17 28651
17 56 27906
56 32 88918
32 51 101508
51 21 46274
21 30 39447
30 42 116978
42 6 52949
6 33 42208
33 45 36286
45 54 30985
54 25 61621
25 65 57990
65 10 13370
10 63 35955
63 66 14572
66 37 15199
37 20 42597
20 2 17216
2 60 12946
60 23 5436
23 62 26977
62 15 14688
15 58 10879
58 27 24825
27 49 10810
49 35 24707
35 7 11459
7 14 6874
14 57 6903
57 8 1776
8 16 5356
16 26 1444
26 1 15574
1 47 7938
47 3 7247
3 19 4440
19 46 12842
46 0 14424
0 11 10465
11 41 4830
41 31 5759
31 55 1426
55 39 3489
39 4 3130
4 59 7978
59 28 6419
28 24 9940
24 29 1248
29 40 5056
40 5 10602
5 22 16175
22 48 4353
48 18 8894
18 53 26950
53 12 13535
12 64 18315
64 44 16725
44 67 50027
67 34 19070
34 50 8926
50 38 11004
38 61 8740
